NAME          
ROWS
 N  OBJ
 L  c1
 L  c2
 L  c3
COLUMNS
    MARKER    'MARKER'                 'INTORG'
    x[1]      c1        243
    x[1]      c2        556
    x[1]      c3        973
    x[1]      OBJ       -193
    x[2]      c1        211
    x[2]      c2        732
    x[2]      c3        729
    x[2]      OBJ       -966
    x[3]      c1        146
    x[3]      c2        82
    x[3]      c3        623
    x[3]      OBJ       -257
    x[4]      c1        764
    x[4]      c2        671
    x[4]      c3        335
    x[4]      OBJ       -243
    x[5]      c1        969
    x[5]      c2        952
    x[5]      c3        315
    x[5]      OBJ       -939
    x[6]      c1        602
    x[6]      c2        932
    x[6]      c3        400
    x[6]      OBJ       -7
    x[7]      c1        660
    x[7]      c2        516
    x[7]      c3        982
    x[7]      OBJ       -580
    x[8]      c1        710
    x[8]      c2        6
    x[8]      c3        408
    x[8]      OBJ       -633
    x[9]      c1        165
    x[9]      c2        953
    x[9]      c3        703
    x[9]      OBJ       -415
    x[10]     c1        791
    x[10]     c2        444
    x[10]     c3        678
    x[10]     OBJ       -193
    x[11]     c1        666
    x[11]     c2        769
    x[11]     c3        169
    x[11]     OBJ       -414
    x[12]     c1        61
    x[12]     c2        312
    x[12]     c3        350
    x[12]     OBJ       -835
    x[13]     c1        432
    x[13]     c2        400
    x[13]     c3        180
    x[13]     OBJ       -756
    x[14]     c1        390
    x[14]     c2        236
    x[14]     c3        650
    x[14]     OBJ       -151
    x[15]     c1        887
    x[15]     c2        195
    x[15]     c3        798
    x[15]     OBJ       -931
    x[16]     c1        177
    x[16]     c2        674
    x[16]     c3        774
    x[16]     OBJ       -51
    x[17]     c1        466
    x[17]     c2        963
    x[17]     c3        481
    x[17]     OBJ       -758
    x[18]     c1        628
    x[18]     c2        298
    x[18]     c3        697
    x[18]     OBJ       -362
    x[19]     c1        707
    x[19]     c2        369
    x[19]     c3        975
    x[19]     OBJ       -514
    x[20]     c1        477
    x[20]     c2        469
    x[20]     c3        978
    x[20]     OBJ       -604
    x[21]     c1        994
    x[21]     c2        149
    x[21]     c3        205
    x[21]     OBJ       -653
    x[22]     c1        283
    x[22]     c2        147
    x[22]     c3        641
    x[22]     OBJ       -959
    x[23]     c1        581
    x[23]     c2        544
    x[23]     c3        90
    x[23]     OBJ       -724
    x[24]     c1        977
    x[24]     c2        716
    x[24]     c3        970
    x[24]     OBJ       -972
    x[25]     c1        370
    x[25]     c2        282
    x[25]     c3        142
    x[25]     OBJ       -598
RHS
    rhs       c1        6678
    rhs       c2        6184
    rhs       c3        7123
RANGES
BOUNDS
 BV bounds    x[1]
 BV bounds    x[2]
 BV bounds    x[3]
 BV bounds    x[4]
 BV bounds    x[5]
 BV bounds    x[6]
 BV bounds    x[7]
 BV bounds    x[8]
 BV bounds    x[9]
 BV bounds    x[10]
 BV bounds    x[11]
 BV bounds    x[12]
 BV bounds    x[13]
 BV bounds    x[14]
 BV bounds    x[15]
 BV bounds    x[16]
 BV bounds    x[17]
 BV bounds    x[18]
 BV bounds    x[19]
 BV bounds    x[20]
 BV bounds    x[21]
 BV bounds    x[22]
 BV bounds    x[23]
 BV bounds    x[24]
 BV bounds    x[25]
ENDATA
